Cars = 1..200;
Options = 1..5;
Classes = 1..24;
sequenceMinCapacity = [0, 0, 0, 0, 0];
sequenceMaxCapacity = [1, 2, 1, 2, 1];
sequenceSize = [2, 3, 3, 5, 5];
numOrdered = [1, 2, 48, 1, 1, 1, 6, 1, 4, 32, 1, 58, 1, 4, 4, 2, 6, 12, 1, 1, 3, 1, 1, 8];
classHasOption = [| true,  true,  true,  true, false
                  | true, false, false, false,  true
                  |false, false, false,  true, false
                  | true,  true,  true, false,  true
                  |false,  true, false,  true,  true
                  | true,  true, false,  true, false
                  |false,  true, false,  true, false
                  |false, false,  true, false,  true
                  | true, false, false,  true, false
                  |false, false,  true, false, false
                  | true,  true,  true, false, false
                  |false,  true, false, false, false
                  |false, false,  true,  true, false
                  | true, false,  true, false, false
                  |false,  true,  true, false, false
                  | true,  true, false, false,  true
                  |false, false, false, false,  true
                  | true, false, false, false, false
                  | true, false, false,  true,  true
                  |false,  true, false, false,  true
                  |false,  true,  true,  true, false
                  |false, false, false,  true,  true
                  |false,  true,  true,  true,  true
                  | true,  true, false, false, false|];
optionOrdering = [3, 4, 2, 5, 1];
